c *********************************
c * Circuit generated by BenCGen
c *
c * Magnitude_11
c *
c * Ports with 1 gate(s): 13
c * Ports with 2 gate(s): 25
c * Ports with 3 gate(s): 1
c * Ports with 4 gate(s): 1
c * Ports with 5 gate(s): 1
c * Ports with 6 gate(s): 1
c * Ports with 7 gate(s): 1
c * Ports with 8 gate(s): 1
c * Ports with 9 gate(s): 1
c * Ports with 10 gate(s): 1
c * Ports with 11 gate(s): 3
c * Total gates: 49
c *********************************
p cnf 71 208
1 27 0
-1 -27 0
1 -26 0
27 -26 0
-1 -27 26 0
12 28 0
-12 -28 0
13 29 0
-13 -29 0
14 30 0
-14 -30 0
15 31 0
-15 -31 0
16 32 0
-16 -32 0
17 33 0
-17 -33 0
18 34 0
-18 -34 0
19 35 0
-19 -35 0
20 36 0
-20 -36 0
21 37 0
-21 -37 0
22 38 0
-22 -38 0
1 12 50 0
-1 12 -50 0
1 -12 -50 0
-1 -12 50 0
1 -39 0
28 -39 0
-1 -28 39 0
2 13 51 0
-2 13 -51 0
2 -13 -51 0
-2 -13 51 0
2 -40 0
29 -40 0
-2 -29 40 0
3 14 52 0
-3 14 -52 0
3 -14 -52 0
-3 -14 52 0
3 -41 0
30 -41 0
-3 -30 41 0
4 15 53 0
-4 15 -53 0
4 -15 -53 0
-4 -15 53 0
4 -42 0
31 -42 0
-4 -31 42 0
5 16 54 0
-5 16 -54 0
5 -16 -54 0
-5 -16 54 0
5 -43 0
32 -43 0
-5 -32 43 0
6 17 55 0
-6 17 -55 0
6 -17 -55 0
-6 -17 55 0
6 -44 0
33 -44 0
-6 -33 44 0
7 18 56 0
-7 18 -56 0
7 -18 -56 0
-7 -18 56 0
7 -45 0
34 -45 0
-7 -34 45 0
8 19 57 0
-8 19 -57 0
8 -19 -57 0
-8 -19 57 0
8 -46 0
35 -46 0
-8 -35 46 0
9 20 58 0
-9 20 -58 0
9 -20 -58 0
-9 -20 58 0
9 -47 0
36 -47 0
-9 -36 47 0
10 21 59 0
-10 21 -59 0
10 -21 -59 0
-10 -21 59 0
10 -48 0
37 -48 0
-10 -37 48 0
11 22 60 0
-11 22 -60 0
11 -22 -60 0
-11 -22 60 0
11 -49 0
38 -49 0
-11 -38 49 0
39 -61 0
51 -61 0
52 -61 0
53 -61 0
54 -61 0
55 -61 0
56 -61 0
57 -61 0
58 -61 0
59 -61 0
60 -61 0
-39 -51 -52 -53 -54 -55 -56 -57 -58 -59 -60 61 0
40 -62 0
52 -62 0
53 -62 0
54 -62 0
55 -62 0
56 -62 0
57 -62 0
58 -62 0
59 -62 0
60 -62 0
-40 -52 -53 -54 -55 -56 -57 -58 -59 -60 62 0
41 -63 0
53 -63 0
54 -63 0
55 -63 0
56 -63 0
57 -63 0
58 -63 0
59 -63 0
60 -63 0
-41 -53 -54 -55 -56 -57 -58 -59 -60 63 0
42 -64 0
54 -64 0
55 -64 0
56 -64 0
57 -64 0
58 -64 0
59 -64 0
60 -64 0
-42 -54 -55 -56 -57 -58 -59 -60 64 0
43 -65 0
55 -65 0
56 -65 0
57 -65 0
58 -65 0
59 -65 0
60 -65 0
-43 -55 -56 -57 -58 -59 -60 65 0
44 -66 0
56 -66 0
57 -66 0
58 -66 0
59 -66 0
60 -66 0
-44 -56 -57 -58 -59 -60 66 0
45 -67 0
57 -67 0
58 -67 0
59 -67 0
60 -67 0
-45 -57 -58 -59 -60 67 0
46 -68 0
58 -68 0
59 -68 0
60 -68 0
-46 -58 -59 -60 68 0
47 -69 0
59 -69 0
60 -69 0
-47 -59 -60 69 0
48 -70 0
60 -70 0
-48 -60 70 0
49 -71 0
-49 71 0
-61 23 0
-62 23 0
-63 23 0
-64 23 0
-65 23 0
-66 23 0
-67 23 0
-68 23 0
-69 23 0
-70 23 0
-71 23 0
61 62 63 64 65 66 67 68 69 70 71 -23 0
50 -24 0
51 -24 0
52 -24 0
53 -24 0
54 -24 0
55 -24 0
56 -24 0
57 -24 0
58 -24 0
59 -24 0
60 -24 0
-50 -51 -52 -53 -54 -55 -56 -57 -58 -59 -60 24 0
-23 -25 0
-24 -25 0
23 24 25 0
